Translating instance to solver...

Set parameter TimeLimit to value 28800
Gurobi Optimizer version 11.0.2 build v11.0.2rc0 (linux64 - "Ubuntu 22.04.4 LTS")

CPU model: Intel(R) Xeon(R) Gold 5120 CPU @ 2.20GHz, instruction set [SSE2|AVX|AVX2|AVX512]
Thread count: 28 physical cores, 56 logical processors, using up to 28 threads

Academic license 2463511 - for non-commercial use only - registered to lu___@cefet-rj.br
Optimize a model with 12725 rows, 7643 columns and 31653 nonzeros
Model fingerprint: 0x7a1f486c
Variable types: 1 continuous, 7642 integer (7620 binary)
Coefficient statistics:
  Matrix range     [1e+00, 1e+05]
  Objective range  [3e-01, 8e-01]
  Bounds range     [1e+00, 2e+01]
  RHS range        [1e+00, 7e+01]
Presolve removed 10507 rows and 6685 columns
Presolve time: 0.17s
Presolved: 2218 rows, 958 columns, 7429 nonzeros
Variable types: 0 continuous, 958 integer (937 binary)

Root relaxation: objective 1.345993e+00, 569 iterations, 0.01 seconds (0.01 work units)

    Nodes    |    Current Node    |     Objective Bounds      |     Work
 Expl Unexpl |  Obj  Depth IntInf | Incumbent    BestBd   Gap | It/Node Time

     0     0    1.34599    0   41          -    1.34599      -     -    0s
H    0     0                       1.8176730    1.34599  25.9%     -    0s
     0     0    1.51178    0   58    1.81767    1.51178  16.8%     -    0s
     0     0    1.51178    0   59    1.81767    1.51178  16.8%     -    0s
     0     0    1.51178    0   67    1.81767    1.51178  16.8%     -    0s
     0     0    1.51178    0   68    1.81767    1.51178  16.8%     -    0s
H    0     0                       1.5117820    1.51178  0.00%     -    0s
     0     0    1.51178    0   13    1.51178    1.51178  0.00%     -    0s

Cutting planes:
  Gomory: 1
  Implied bound: 19
  Clique: 8
  MIR: 11
  Zero half: 3
  RLT: 13
  Relax-and-lift: 11
  BQP: 1

Explored 1 nodes (2252 simplex iterations) in 0.50 seconds (0.34 work units)
Thread count was 28 (of 56 available processors)

Solution count 2: 1.51178 1.81767 

Optimal solution found (tolerance 1.00e-04)
Best objective 1.511782000000e+00, best bound 1.511781834211e+00, gap 0.0000%

Solver Wallclock Time (for this epsilon): 0.5013468265533447 s
Python wallclock Time (for this epsilon): 1.4326786994934082 s


Total Elapsed Time (since program call): 23.797670602798462 s

Results:

I = 1.511782 mA
C = 70.0 points
C ~= 28.0 km^2

Minimum Epsilon for this instance = 10
Maximum Epsilon for this instance = 100

Current Epsilon = 70


Preprocessing Time (for this epsilon): 0.003402233123779297 s


Updated solution vectors:
sol_I = [-0.611782,-1.061782,-1.061782,-1.061782,-1.061782,-1.511782,-1.511782]
sol_C = [14.0,48.0,48.0,49.0,50.0,73.0,70.0]
sol_eps = [10,20,30,40,50,60,70]
sol_gap = [0.0,0.0,0.0,0.0,0.0,0.0,1.6578947303891312e-07]
